Maximize
   x1 +  x2 +  x3 +  x4 +  x5 +  x6 +  x7 +  x8 +  x9 +  x10 

Subject To
DEG1: x1 + x2 + x3 + x4 + x5 <= 1
DEG2: x1 + x6 + x7 <= 1
DEG3: x2 + x6 + x8 <= 1
DEG4: x3 + x8 + x9 <= 1
DEG5: x4 + x9 + x10 <= 1
DEG6: x5 + x7 + x10 <= 1
(2,4)-SEP_#1: x1 + x6 + x7 +x3+x8+x9 -x1 -x2 -x3 -x4 -x5 -x2 -x6 -x8 -x5 -x7 -x10 <= 1
(2,4)-SEP_#2: x1 + x6 + x7 +x3+x8+x9 -x1 -x2 -x3 -x4 -x5 -x2 -x6 -x8 -x4 -x9 -x10 <= 1
(2,5)-SEP_#1: x1 + x6 + x7 +x4+x9+x10 -x1 -x2 -x3 -x4 -x5 -x2 -x6 -x8 -x5 -x7 -x10 <= 1
(2,5)-SEP_#2: x1 + x6 + x7 +x4+x9+x10 -x1 -x2 -x3 -x4 -x5 -x3 -x8 -x9 -x5 -x7 -x10 <= 1
(3,5)-SEP_#1: x2 + x6 + x8 +x4+x9+x10 -x1 -x2 -x3 -x4 -x5 -x1 -x6 -x7 -x3 -x8 -x9 <= 1
(3,5)-SEP_#2: x2 + x6 + x8 +x4+x9+x10 -x1 -x2 -x3 -x4 -x5 -x3 -x8 -x9 -x5 -x7 -x10 <= 1
(3,6)-SEP_#1: x2 + x6 + x8 +x5+x7+x10 -x1 -x2 -x3 -x4 -x5 -x1 -x6 -x7 -x3 -x8 -x9 <= 1
(3,6)-SEP_#2: x2 + x6 + x8 +x5+x7+x10 -x1 -x2 -x3 -x4 -x5 -x1 -x6 -x7 -x4 -x9 -x10 <= 1
(4,6)-SEP_#1: x3 + x8 + x9 +x5+x7+x10 -x1 -x2 -x3 -x4 -x5 -x2 -x6 -x8 -x4 -x9 -x10 <= 1
(4,6)-SEP_#2: x3 + x8 + x9 +x5+x7+x10 -x1 -x2 -x3 -x4 -x5 -x1 -x6 -x7 -x4 -x9 -x10 <= 1

Bounds

Binaries
 x1  x2  x3  x4  x5  x6  x7  x8  x9  x10 

End
